
Gurobi 11.0.1 (linux64, gurobi_cl) logging started Mon Jun 10 15:00:18 2024

Set parameter Username
Set parameter LogFile to value "gurobi.log"
Using license file /home/tlo/Documents/Data/bactrack_imp/gurobi.lic
Academic license - for non-commercial use only - expires 2025-03-12

Gurobi 11.0.1 (linux64, gurobi_cl) logging started Mon Jun 10 15:22:14 2024

Set parameter Username
Set parameter LogFile to value "gurobi.log"
Using license file /home/tlo/Documents/Data/bactrack_imp/gurobi.lic
Academic license - for non-commercial use only - expires 2025-03-12
